
******************************************************************************
This program contains Ipopt, a library for large-scale nonlinear optimization.
 Ipopt is released as open source code under the Eclipse Public License (EPL).
         For more information visit http://projects.coin-or.org/Ipopt
******************************************************************************

This is Ipopt version trunk, running with linear solver mumps.
NOTE: Other linear solvers might be more efficient (see Ipopt documentation).

Number of nonzeros in equality constraint Jacobian...:   322752
Number of nonzeros in inequality constraint Jacobian.:        0
Number of nonzeros in Lagrangian Hessian.............:        0

Total number of variables............................:      656
                     variables with only lower bounds:        0
                variables with lower and upper bounds:      656
                     variables with only upper bounds:        0
Total number of equality constraints.................:      492
Total number of inequality constraints...............:        0
        inequality constraints with only lower bounds:        0
   inequality constraints with lower and upper bounds:        0
        inequality constraints with only upper bounds:        0

iter    objective    inf_pr   inf_du lg(mu)  ||d||  lg(rg) alpha_du alpha_pr  ls
   0  1.7910892e+00 1.20e-04 3.75e-01   0.0 0.00e+00    -  0.00e+00 0.00e+00   0
   1  2.1782313e+00 2.19e-05 5.32e-01  -1.0 3.75e-01    -  9.90e-01 1.00e+00H  1
   2  3.0198202e+00 7.80e-06 3.12e-01   0.9 5.47e-01    -  9.98e-01 1.00e+00H  1
   3  3.0199234e+00 7.80e-06 3.12e-01  -1.1 8.75e-01    -  9.98e-01 1.22e-04h 14
   4  3.6873270e+00 1.18e-06 3.75e-01  -1.1 7.34e-01    -  1.00e+00 1.00e+00H  1
   5  3.4061040e+00 1.21e-02 3.91e-01  -3.2 1.76e-01    -  9.98e-01 1.00e+00f  1
   6  2.8533582e+00 4.71e-02 3.55e-01  -3.2 3.49e-01    -  1.00e+00 1.00e+00f  1
   7  2.7294338e+00 1.18e-02 2.73e-01  -3.2 1.64e-01    -  1.00e+00 1.00e+00h  1
   8  3.0375333e+00 6.97e-04 4.07e-01  -3.2 1.82e-01    -  1.00e+00 1.00e+00H  1
   9  3.3116968e+00 5.42e-04 3.44e-01  -3.2 2.46e-01    -  1.00e+00 1.00e+00H  1
iter    objective    inf_pr   inf_du lg(mu)  ||d||  lg(rg) alpha_du alpha_pr  ls
  10  3.9375047e+00 7.72e-05 6.51e-01  -3.2 3.16e-01    -  1.00e+00 1.00e+00H  1
  11  3.3239375e+00 2.19e-04 2.77e-01  -3.2 1.88e-01    -  1.00e+00 1.00e+00F  1
  12  3.0143433e+00 9.67e-03 4.63e-01  -3.2 6.53e-01    -  1.00e+00 1.00e+00F  1
  13  2.8184059e+00 5.57e-04 1.80e-01  -3.2 2.48e-01    -  1.00e+00 1.00e+00F  1
  14  3.8858109e+00 2.09e-04 4.14e-01  -3.2 5.07e-01    -  1.00e+00 1.00e+00H  1
  15  3.1452446e+00 3.20e-04 1.32e-01  -3.2 2.05e-01    -  1.00e+00 1.00e+00F  1
  16  3.0795348e+00 2.32e-04 3.62e-01  -3.2 4.52e-01    -  1.00e+00 1.00e+00F  1
  17  2.8469481e+00 4.75e-04 2.06e-01  -3.2 1.75e-01    -  1.00e+00 1.00e+00F  1
  18  3.5081693e+00 8.87e-05 4.69e-01  -3.2 3.55e-01    -  1.00e+00 1.00e+00H  1
  19  3.0696483e+00 2.08e-04 1.65e-01  -3.2 1.32e-01    -  1.00e+00 1.00e+00F  1
iter    objective    inf_pr   inf_du lg(mu)  ||d||  lg(rg) alpha_du alpha_pr  ls
  20  2.9123484e+00 3.77e-05 3.93e-01  -3.2 2.51e-01    -  1.00e+00 1.00e+00F  1
  21  2.8611734e+00 1.71e-04 8.84e-02  -3.2 1.20e-01    -  1.00e+00 1.00e+00F  1
  22  2.9102903e+00 1.07e-04 1.96e-01  -3.2 9.70e-02    -  1.00e+00 1.00e+00H  1
  23  2.9191792e+00 2.95e-06 6.97e-02  -3.2 2.92e-02    -  1.00e+00 1.00e+00H  1
  24  2.9168860e+00 2.35e-03 8.91e-02  -5.1 1.42e-01    -  1.00e+00 5.00e-01f  2
  25  2.9015878e+00 3.71e-04 6.98e-02  -5.2 2.17e-02    -  1.00e+00 1.00e+00h  1
  26  2.8961026e+00 3.30e-03 1.28e-01  -5.2 7.52e-02    -  1.00e+00 1.00e+00h  1
  27  2.8818789e+00 4.16e-04 8.48e-02  -5.2 2.58e-02    -  1.00e+00 1.00e+00h  1
  28  2.9284752e+00 4.61e-05 1.54e-01  -5.2 7.28e-02    -  1.00e+00 1.00e+00H  1
  29  2.8915837e+00 7.63e-06 1.29e-02  -5.2 4.28e-02    -  1.00e+00 1.00e+00F  1
iter    objective    inf_pr   inf_du lg(mu)  ||d||  lg(rg) alpha_du alpha_pr  ls
  30  2.8903254e+00 7.15e-05 1.49e-02  -7.1 1.31e-02    -  1.00e+00 1.00e+00h  1
  31  2.8975810e+00 1.27e-06 4.27e-02  -7.2 6.11e-02    -  1.00e+00 1.00e+00H  1
  32  2.8938926e+00 9.99e-05 3.80e-02  -9.0 1.15e-02    -  1.00e+00 1.00e+00f  1
  33  2.9870798e+00 5.03e-05 1.19e-01  -9.1 1.02e-01    -  1.00e+00 1.00e+00H  1
  34  2.9021430e+00 1.22e-05 3.34e-02  -9.1 5.96e-02    -  1.00e+00 1.00e+00F  1
  35  2.8996332e+00 5.36e-06 5.04e-02  -9.1 4.91e-02    -  1.00e+00 1.00e+00H  1
  36  2.8973702e+00 8.98e-07 3.16e-02  -9.1 2.09e-02    -  1.00e+00 1.00e+00F  1
  37  2.8970543e+00 9.60e-05 2.32e-02 -11.0 3.98e-02    -  1.00e+00 2.50e-01f  3
  38  2.9005664e+00 1.49e-06 2.74e-02 -11.0 2.53e-02    -  1.00e+00 1.00e+00H  1
  39  2.8978684e+00 9.35e-05 2.03e-02 -11.0 1.13e-02    -  1.00e+00 1.00e+00h  1
iter    objective    inf_pr   inf_du lg(mu)  ||d||  lg(rg) alpha_du alpha_pr  ls
  40  2.9075929e+00 5.44e-06 5.27e-02 -11.0 4.54e-02    -  1.00e+00 1.00e+00H  1
  41  2.8985451e+00 1.11e-06 1.74e-02 -11.0 2.67e-02    -  1.00e+00 1.00e+00F  1
  42  2.8966089e+00 1.21e-04 1.23e-02 -11.0 2.78e-02    -  1.00e+00 5.00e-01f  2
  43  2.8962266e+00 4.96e-05 1.54e-02 -11.0 1.46e-02    -  1.00e+00 1.00e+00h  1
  44  2.8959975e+00 7.05e-05 1.74e-02 -11.0 2.50e-02    -  1.00e+00 1.00e+00h  1
  45  2.8960924e+00 1.30e-07 3.29e-02 -11.0 7.86e-02    -  1.00e+00 1.00e+00H  1
  46  2.8960927e+00 1.30e-07 3.29e-02 -11.0 6.51e-01    -  1.00e+00 3.05e-05h 16
  47  2.8960931e+00 1.30e-07 3.30e-02 -11.0 1.93e-01    -  1.00e+00 4.88e-04h 12
  48  2.8957607e+00 1.01e-03 4.64e-02 -11.0 2.69e-01    -  1.00e+00 5.00e-01f  2
  49  2.9291430e+00 3.58e-08 8.35e-02 -11.0 1.59e-01    -  1.00e+00 1.00e+00H  1
iter    objective    inf_pr   inf_du lg(mu)  ||d||  lg(rg) alpha_du alpha_pr  ls
  50  2.9285640e+00 1.00e-04 7.07e-02 -11.0 5.46e-02    -  1.00e+00 2.50e-01f  3
  51  3.0066922e+00 7.29e-06 2.46e-01 -11.0 1.40e-01    -  1.00e+00 1.00e+00H  1
  52  2.9043716e+00 6.61e-03 5.73e-02 -11.0 9.72e-02    -  1.00e+00 1.00e+00f  1
  53  2.8927416e+00 1.50e-03 8.09e-02 -11.0 8.82e-02    -  1.00e+00 1.00e+00h  1
  54  2.8893644e+00 2.84e-04 3.83e-02 -11.0 2.26e-02    -  1.00e+00 1.00e+00h  1
  55  2.8995393e+00 1.40e-06 3.45e-02 -11.0 1.04e-01    -  1.00e+00 1.00e+00H  1
  56  2.8995840e+00 1.40e-06 3.45e-02 -11.0 5.59e-01    -  1.00e+00 9.77e-04h 11
  57  2.8996001e+00 1.36e-06 3.45e-02 -11.0 4.13e-01    -  1.00e+00 3.91e-03h  9
  58  2.8989328e+00 2.51e-04 4.53e-02 -11.0 5.76e-01    -  1.00e+00 1.25e-01f  4
  59  3.0172876e+00 2.70e-08 1.59e-01 -11.0 4.97e-01    -  1.00e+00 1.00e+00H  1
iter    objective    inf_pr   inf_du lg(mu)  ||d||  lg(rg) alpha_du alpha_pr  ls
  60  2.9877107e+00 1.04e-06 1.01e-01 -11.0 7.77e-02    -  1.00e+00 1.00e+00F  1
  61  2.9861759e+00 1.76e-06 9.97e-02 -11.0 4.55e-01    -  1.00e+00 7.81e-03f  8
  62  2.9853515e+00 1.86e-06 9.90e-02 -11.0 9.48e-01    -  1.00e+00 1.95e-03f 10
  63  2.9842217e+00 1.93e-06 9.83e-02 -11.0 5.15e-01    -  1.00e+00 3.91e-03f  9
  64  2.9527862e+00 2.44e-02 2.62e-01 -11.0 4.07e-01    -  1.00e+00 1.00e+00f  1
  65  2.9589026e+00 9.04e-03 1.94e-01 -11.0 1.22e-01    -  1.00e+00 1.00e+00h  1
  66  3.1720844e+00 1.43e-03 4.13e-01 -11.0 2.37e-01    -  1.00e+00 1.00e+00H  1
  67  3.2392601e+00 4.13e-04 4.09e-01 -11.0 2.86e-01    -  1.00e+00 1.00e+00H  1
  68  4.9822682e+00 1.91e-04 5.69e-01 -11.0 7.29e-01    -  1.00e+00 1.00e+00H  1
  69  3.5166793e+00 1.43e-04 6.78e-01 -11.0 5.98e-01    -  1.00e+00 1.00e+00F  1
iter    objective    inf_pr   inf_du lg(mu)  ||d||  lg(rg) alpha_du alpha_pr  ls
  70  3.4457806e+00 1.43e-04 6.28e-01 -11.0 1.92e+00    -  1.00e+00 1.56e-02f  7
  71  3.2451576e+00 8.35e-05 7.42e-01 -11.0 6.67e-01    -  1.00e+00 1.00e+00F  1
  72  3.3667570e+00 2.56e-05 6.90e-01 -11.0 3.16e-01    -  1.00e+00 1.00e+00H  1
  73  3.6304557e+00 2.74e-06 5.58e-01 -11.0 5.42e-01    -  1.00e+00 1.00e+00H  1
  74  3.2964037e+00 9.34e-06 5.37e-01 -11.0 3.12e-01    -  1.00e+00 1.00e+00F  1
  75  3.1229418e+00 1.26e-02 4.05e-01 -11.0 4.92e-01    -  1.00e+00 2.50e-01f  3
  76  3.1171848e+00 4.23e-03 4.03e-01 -11.0 3.18e-01    -  1.00e+00 1.00e+00F  1
  77  3.0002517e+00 7.02e-03 4.09e-01 -11.0 9.56e-02    -  1.00e+00 1.00e+00f  1
  78  3.2063768e+00 2.76e-04 5.70e-01 -11.0 3.12e-01    -  1.00e+00 1.00e+00H  1
  79  2.9015617e+00 1.97e-02 9.46e-02 -11.0 1.52e-01    -  1.00e+00 1.00e+00f  1
iter    objective    inf_pr   inf_du lg(mu)  ||d||  lg(rg) alpha_du alpha_pr  ls
  80  2.8812735e+00 1.98e-03 1.07e-01 -11.0 4.89e-02    -  1.00e+00 1.00e+00h  1
  81  2.8883395e+00 6.74e-04 6.16e-02 -11.0 3.24e-02    -  1.00e+00 1.00e+00h  1
  82  2.8893182e+00 2.76e-04 3.50e-02 -11.0 1.86e-02    -  1.00e+00 1.00e+00h  1
  83  2.8997182e+00 5.34e-06 6.31e-02 -11.0 4.10e-02    -  1.00e+00 1.00e+00H  1
  84  2.8943206e+00 3.94e-04 3.77e-02 -11.0 1.78e-02    -  1.00e+00 1.00e+00h  1
  85  2.9029087e+00 5.04e-07 1.03e-01 -11.0 8.09e-02    -  1.00e+00 1.00e+00H  1
  86  2.8864850e+00 8.45e-04 9.21e-02 -11.0 3.16e-02    -  1.00e+00 1.00e+00f  1
  87  3.1727857e+00 1.21e-06 3.02e-01 -11.0 1.81e-01    -  1.00e+00 1.00e+00H  1
  88  2.9100840e+00 5.24e-06 7.82e-02 -11.0 1.04e-01    -  1.00e+00 1.00e+00F  1
  89  2.8882321e+00 1.24e-04 1.30e-01 -11.0 7.13e-02    -  1.00e+00 1.00e+00F  1
iter    objective    inf_pr   inf_du lg(mu)  ||d||  lg(rg) alpha_du alpha_pr  ls
  90  2.8817343e+00 9.45e-04 4.81e-02 -11.0 4.02e-02    -  1.00e+00 1.00e+00h  1
  91  2.8879748e+00 5.88e-04 4.50e-02 -11.0 2.84e-02    -  1.00e+00 1.00e+00h  1
  92  2.8881825e+00 4.39e-04 3.55e-02 -11.0 1.89e-02    -  1.00e+00 2.50e-01h  3
  93  2.8939181e+00 3.20e-05 9.28e-02 -11.0 6.31e-02    -  1.00e+00 1.00e+00H  1
  94  2.8837443e+00 7.51e-04 3.16e-02 -11.0 3.46e-02    -  1.00e+00 1.00e+00f  1
  95  2.8835784e+00 2.00e-04 1.76e-02 -11.0 1.85e-02    -  1.00e+00 1.00e+00h  1
  96  2.8827584e+00 2.23e-05 5.42e-03 -11.0 6.83e-03    -  1.00e+00 1.00e+00h  1

Number of Iterations....: 96

                                   (scaled)                 (unscaled)
Objective...............:   2.8827583715086398e+00    2.8827583715086398e+00
Dual infeasibility......:   5.4196144746770872e-03    5.4196144746770872e-03
Constraint violation....:   1.9763502217953755e-05    2.2275331894472394e-05
Complementarity.........:   1.0000000000000001e-11    1.0000000000000001e-11
Overall NLP error.......:   5.4196144746770872e-03    5.4196144746770872e-03


Number of objective function evaluations             = 348
Number of objective gradient evaluations             = 97
Number of equality constraint evaluations            = 348
Number of inequality constraint evaluations          = 0
Number of equality constraint Jacobian evaluations   = 97
Number of inequality constraint Jacobian evaluations = 0
Number of Lagrangian Hessian evaluations             = 0
Total CPU secs in IPOPT (w/o function evaluations)   =     57.239
Total CPU secs in NLP function evaluations           =     27.726

EXIT: Optimal Solution Found.
